n_res = 4;
rc = [ 22, 18, 19, 22 ];
n_tasks = 60;
d = [ 5, 1, 10, 5, 10, 8, 3, 8, 2, 7, 8, 2, 2, 10, 5, 5, 7, 10, 6, 4, 9, 4, 9, 1, 10, 7, 3, 6, 4, 3, 5, 2, 7, 2, 3, 10, 8, 6, 9, 4, 9, 7, 4, 7, 5, 5, 8, 3, 7, 5, 7, 10, 7, 3, 9, 6, 9, 6, 1, 4 ];
rr = [| 10, 4, 5, 9, 4, 5, 6, 2, 5, 3, 9, 5, 10, 9, 7, 6, 8, 2, 4, 3, 9, 10, 8, 10, 9, 4, 7, 10, 4, 5, 5, 4, 7, 7, 3, 5, 9, 9, 8, 10, 2, 10, 4, 6, 1, 6, 9, 3, 4, 3, 7, 6, 8, 2, 4, 2, 6, 1, 3, 9
      | 3, 1, 5, 9, 2, 3, 9, 2, 7, 6, 8, 8, 5, 5, 8, 7, 6, 3, 5, 6, 3, 7, 2, 10, 3, 6, 4, 2, 6, 10, 6, 7, 10, 10, 10, 8, 1, 4, 2, 4, 2, 1, 2, 3, 8, 2, 5, 1, 4, 1, 3, 9, 9, 2, 1, 8, 2, 3, 8, 3
      | 2, 9, 1, 1, 7, 1, 6, 1, 5, 3, 10, 1, 9, 9, 1, 10, 4, 8, 2, 1, 1, 9, 9, 3, 6, 10, 8, 1, 5, 9, 1, 2, 6, 8, 2, 2, 4, 7, 5, 10, 5, 3, 9, 1, 10, 1, 10, 2, 8, 9, 10, 1, 8, 5, 6, 7, 5, 7, 9, 3
      | 6, 6, 9, 8, 4, 10, 6, 5, 1, 6, 9, 7, 1, 5, 9, 3, 8, 9, 4, 9, 6, 2, 8, 2, 6, 3, 3, 8, 10, 2, 10, 6, 3, 10, 1, 3, 8, 6, 6, 10, 9, 7, 1, 6, 10, 7, 1, 5, 6, 10, 10, 10, 8, 7, 7, 8, 10, 9, 7, 2 |];
suc = [ { 4, 7, 52 },
       { 10, 16, 46 },
       { 12, 14, 23 },
       { 5, 6, 8 },
       { 11, 17, 48 },
       { 13, 41, 44 },
       { 25, 39, 55 },
       { 9, 20, 22 },
       { 13, 15, 21 },
       { 27, 34, 35 },
       { 30, 31, 33 },
       { 18, 25 },
       { 43, 48, 55 },
       { 40, 57 },
       { 24, 39 },
       { 51 },
       { 19, 28, 38 },
       { 20, 56 },
       { 35, 46, 49 },
       { 28, 35 },
       { 32 },
       { 26, 36, 45 },
       { 44 },
       { 29, 49 },
       { 27, 33, 37 },
       { 27, 28, 41 },
       { 48 },
       { 53 },
       { 36, 56 },
       { 42 },
       { 32 },
       { 58 },
       { 36, 40 },
       { 52 },
       { 40 },
       { 54 },
       { 57 },
       { 39 },
       { 42, 47 },
       { 59 },
       { 43, 46 },
       { 53, 56 },
       { 59 },
       { 47 },
       { 47 },
       { 50, 53, 55 },
       { 49, 50 },
       { 59 },
       { 51, 54 },
       { 51 },
       { 58 },
       { 54 },
       { 57 },
       { 60 },
       { 60 },
       { 58 },
       { 60 },
       {  },
       {  },
       {  } ];
